! B3LYP D3BJ RIJCOSX def2/J def2-SVP LargePrint SP
%Pal NProcs 1 end
%MaxCore 4000
%SCF
    AutoTRAH    True
    CNVDamp     True
    CNVZerner   False
    end
%method
    FrozenCore FC_ELECTRONS
    end
*xyz 0 1
C            -9.48119000     4.17287000    -0.29199000
C            -9.54206000     3.34677000    -1.41677000
C            -8.39726000     2.67498000    -1.85191000
C            -7.19158000     2.82174000    -1.15900000
C            -7.12587000     3.63870000    -0.01134000
C            -8.27722000     4.32256000     0.40324000
H            -8.24120000     4.96850000     1.27167000
H           -10.36649000     4.69947000     0.04031000
H           -10.47404000     3.23312000    -1.95524000
H            -8.44255000     2.04378000    -2.73001000
H            -6.31631000     2.30455000    -1.52751000
N            -5.91569000     3.84220000     0.71734000
N            -5.49189000     3.15570000     1.68000000
C            -6.12454000     2.01675000     2.26263000
C            -5.51985000     1.41358000     3.37425000
C            -6.11313000     0.30898000     3.99325000
C            -7.32416000    -0.19560000     3.51358000
C            -7.94698000     0.40826000     2.41875000
C            -7.35653000     1.51272000     1.79677000
H            -7.86854000     1.97214000     0.96241000
H            -4.58276000     1.79823000     3.75716000
H            -5.63473000    -0.15425000     4.84649000
H            -7.78342000    -1.04947000     3.99465000
H            -8.89086000     0.02357000     2.05457000
*
