! B3LYP D3BJ RIJCOSX def2/J def2-SVP LargePrint SP
%Pal NProcs 1 end
%MaxCore 4000
%SCF
    AutoTRAH    True
    CNVDamp     True
    CNVZerner   False
    end
%method
    FrozenCore FC_ELECTRONS
    end
*xyz 0 1
C           -10.17089000     2.34680000    -0.10637000
C           -10.19549000     0.95240000    -0.18596000
C            -9.00514000     0.22716000    -0.09469000
C            -7.78745000     0.89488000     0.06857000
C            -7.75151000     2.30332000     0.13075000
C            -8.95521000     3.01806000     0.05741000
H            -8.94887000     4.09907000     0.12145000
H           -11.09422000     2.90804000    -0.16925000
H           -11.13722000     0.43375000    -0.31084000
H            -9.02617000    -0.85382000    -0.14533000
H            -6.88283000     0.30860000     0.15424000
N            -6.53927000     3.03211000     0.32117000
N            -5.39359000     2.70438000    -0.07585000
C            -5.08064000     1.76187000    -1.10086000
C            -3.86882000     1.06222000    -1.01655000
C            -3.50801000     0.14473000    -2.00818000
C            -4.35072000    -0.07273000    -3.10081000
C            -5.55193000     0.63231000    -3.20677000
C            -5.91644000     1.55021000    -2.21689000
H            -6.84309000     2.09555000    -2.33233000
H            -3.20583000     1.22516000    -0.17595000
H            -2.57362000    -0.39595000    -1.93036000
H            -4.06956000    -0.78174000    -3.86873000
H            -6.19913000     0.47141000    -4.05928000
*
