! B3LYP D3BJ RIJCOSX def2/J def2-SVP LargePrint SP
%Pal NProcs 1 end
%MaxCore 4000
%SCF
    AutoTRAH    True
    CNVDamp     True
    CNVZerner   False
    end
%method
    FrozenCore FC_ELECTRONS
    end
*xyz 0 1
C            -9.35398000     5.14839000    -0.64610000
C           -10.08367000     4.10476000    -1.22028000
C            -9.54638000     2.81593000    -1.25812000
C            -8.27568000     2.56966000    -0.72902000
C            -7.52431000     3.62126000    -0.16470000
C            -8.08315000     4.90595000    -0.11550000
H            -7.52828000     5.72208000     0.33032000
H            -9.77384000     6.14533000    -0.60987000
H           -11.06800000     4.29316000    -1.62901000
H           -10.11693000     2.00557000    -1.69322000
H            -7.89076000     1.55944000    -0.75521000
N            -6.23390000     3.41931000     0.41063000
N            -5.34344000     2.57191000     0.66870000
C            -4.97613000     1.19602000     0.57402000
C            -3.71081000     0.80979000     1.03764000
C            -3.29722000    -0.52283000     0.94603000
C            -4.14103000    -1.48028000     0.37808000
C            -5.39661000    -1.10493000    -0.10548000
C            -5.81394000     0.22659000    -0.01517000
H            -6.78332000     0.49353000    -0.41323000
H            -3.04668000     1.54391000     1.47663000
H            -2.32123000    -0.81252000     1.31348000
H            -3.81914000    -2.51112000     0.30599000
H            -6.04542000    -1.84527000    -0.55545000
*
