! B3LYP D3BJ RIJCOSX def2/J def2-SVP LargePrint
%Pal NProcs 1 end
%MaxCore 4000
%SCF
    AutoTRAH    True
    CNVDamp     True
    CNVZerner   False
    end
%cis 
    NRoots      2
    Triplets    false
    TDA         false
    IRoot       None
    DoSOC       false
    DoNTO       True
    end
%method
    FrozenCore FC_ELECTRONS
    end
*xyz 0 1
C            -9.11987000     3.14812000     0.43515000
C            -9.52515000     3.41192000    -0.87601000
C            -8.57035000     3.65716000    -1.86652000
C            -7.20883000     3.63900000    -1.54746000
C            -6.79182000     3.37550000    -0.23573000
C            -7.75923000     3.12901000     0.75848000
H            -7.46603000     2.92270000     1.77990000
H            -9.86034000     2.95834000     1.20147000
H           -10.57853000     3.42628000    -1.12434000
H            -8.88504000     3.86138000    -2.88179000
H            -6.47679000     3.83030000    -2.32227000
N            -5.40186000     3.36510000     0.05175000
N            -4.96694000     3.13676000     1.19849000
C            -3.57698000     3.12653000     1.48601000
C            -3.15993000     2.86180000     2.79748000
C            -1.79842000     2.84378000     3.11657000
C            -0.84367000     3.09043000     2.12636000
C            -1.24899000     3.35548000     0.81547000
C            -2.60963000     3.37442000     0.49210000
H            -2.90287000     3.58174000    -0.52911000
H            -3.89193000     2.66941000     3.57205000
H            -1.48369000     2.63857000     4.13163000
H             0.20971000     3.07618000     2.37471000
H            -0.50856000     3.54637000     0.04938000
*
